
Gurobi 6.0.4 (win64) logging started 06/18/15 20:05:02

Read LP format model from file E:\Eigene Dateien\Downloads\Michi shit\VRPTWMS2\instances\mip\fuel\N8-C_DV100-C_SV25_F5_0_No_1.lp
Reading time = 0.01 seconds
(null): 417 rows, 208 columns, 1715 nonzeros
Optimize a model with 417 rows, 208 columns and 1715 nonzeros
Model has 576 quadratic constraints
Coefficient statistics:
  Matrix range    [1e+00, 1e+06]
  Objective range [2e+04, 1e+07]
  Bounds range    [1e+00, 1e+06]
  RHS range       [1e+00, 1e+06]
Presolve removed 38 rows and 26 columns
Presolve time: 0.04s
Presolved: 1377 rows, 703 columns, 6623 nonzeros
Variable types: 477 continuous, 226 integer (183 binary)

Root relaxation: objective 9.990311e+06, 104 iterations, 0.00 seconds

    Nodes    |    Current Node    |     Objective Bounds      |     Work
 Expl Unexpl |  Obj  Depth IntInf | Incumbent    BestBd   Gap | It/Node Time

     0     0 9990310.88    0   26          - 9990310.88      -     -    0s
     0     0 1.8619e+07    0   28          - 1.8619e+07      -     -    0s
     0     0 2.1904e+07    0    9          - 2.1904e+07      -     -    0s
     0     0 2.1905e+07    0   22          - 2.1905e+07      -     -    0s
     0     0 2.1905e+07    0   17          - 2.1905e+07      -     -    0s
     0     0 2.1905e+07    0   17          - 2.1905e+07      -     -    0s
     0     0 2.1905e+07    0   16          - 2.1905e+07      -     -    0s
H    0     0                    9.520090e+07 2.1905e+07  77.0%     -    0s
     0     0 2.1905e+07    0   16 9.5201e+07 2.1905e+07  77.0%     -    0s
H    0     0                    6.419830e+07 2.1905e+07  65.9%     -    0s
     0     2 2.1905e+07    0   16 6.4198e+07 2.1905e+07  65.9%     -    0s
H   46    41                    5.391950e+07 2.1915e+07  59.4%  23.7    0s
H  123    95                    4.385960e+07 2.1932e+07  50.0%  23.1    0s
H  146    98                    4.257600e+07 2.1932e+07  48.5%  21.5    0s
*  160    96              18    3.317620e+07 2.1932e+07  33.9%  22.5    0s
*  194    97              11    3.298980e+07 2.2017e+07  33.3%  23.7    0s
H  344   167                    3.297770e+07 2.2017e+07  33.2%  21.5    0s
H  382   189                    3.297480e+07 2.2017e+07  33.2%  21.1    0s
*  519   251              25    3.288000e+07 2.2190e+07  32.5%  20.3    0s
*  583   268              28    3.273830e+07 2.2202e+07  32.2%  20.7    0s
  6812   538 2.2923e+07   27   27 3.2738e+07 2.2923e+07  30.0%  29.7    5s

Cutting planes:
  Learned: 1
  Gomory: 6
  Cover: 1
  Implied bound: 9
  Clique: 3
  MIR: 9
  Flow cover: 9
  GUB cover: 2
  Zero half: 3

Explored 8728 nodes (288093 simplex iterations) in 6.51 seconds
Thread count was 4 (of 4 available processors)

Optimal solution found (tolerance 1.00e-04)
Best objective 3.273830000000e+07, best bound 3.273830000000e+07, gap 0.0%
k_c1	970000.0
k_c2	1000000.0
k_c3	960000.0
k_c4	900000.0
k_c5	190000.0
k_c6	1000000.0
k_c7	120000.0
k_c8	70000.0
k_dN	-0.0
o_1	-0.0
o_2	-0.0
o_3	0.0
o_4	-0.0
o_5	0.0
o_6	-0.0
o_7	0.0
o_8	-0.0
p_1	0.0
p_2	0.0
p_3	1.0
p_4	0.0
p_5	0.0
p_6	1.0
p_7	0.0
p_8	0.0
phi_c1	30787.0
phi_c2	39549.99999999999
phi_c3	0.0
phi_c4	26559.0
phi_c5	48501.0
phi_c6	26779.0
phi_c7	41811.0
phi_c8	1892.9999999999998
phi_dN	-0.0
pi_c1	-0.0
pi_c2	-0.0
pi_c3	49999.99999999947
pi_c4	-0.0
pi_c5	-0.0
pi_c6	73220.99999999948
pi_c7	-0.0
pi_c8	-0.0
pi_dN	-0.0
tauD_c1	434200.0000000001
tauD_c2	79425.0
tauD_c3	200000.0
tauD_c4	500000.0
tauD_c5	500000.0
tauD_c6	86775.0
tauD_c7	650000.0
tauD_c8	770100.0
tauD_d0	-0.0
tauD_dN	1000000.0
tauS_c1	7575.0
tauS_c2	-0.0
tauS_c3	311100.0
tauS_c4	791500.0
tauS_c5	-0.0
tauS_c6	86775.0
tauS_c7	24175.0
tauS_c8	-0.0
tauS_d0	-0.0
tauS_dN	426199.9999999893
x_c1_c4	1.0
x_c2_c3	1.0
x_c3_c5	1.0
x_c4_dN	1.0
x_c5_c7	1.0
x_c6_c1	1.0
x_c7_c8	1.0
x_c8_dN	1.0
x_d0_c2	1.0
x_d0_c6	1.0
z_c3_dN	0.9999999999999893
z_c6_c3	1.0
z_d0_c6	1.0
